D4 LOG: Running /Users/bryant/repos/d4/d4 ./mc2022_track1_077.cnf -dDNNF -out=./mc2022_track1_077.cnnf -drat=./mc2022_track1_077.drat
D4 LOG: Time limit 1000 seconds
c [33mBenchmark Information[0m
c Number of variables: 250
c Number of clauses: 1062
c Number of literals: 3186
c Preproc options: 
c
c Preproc time: 0.000234
c Integer mode 
c
c [1m[32mOption list [0m
c Caching: 1
c Reduce cache procedure level: 20
c Strategy for Reducing the cache: 0
c Cache representation: CL
c Part of the formula that is cached: NT
c Variable heuristic: VSADS
c Phase heuristic: TRUE
c Partitioning heuristic: CB + graph reduction + equivalence simplication
c
c ----------------------------------------------------------------------------------------------------------------------------------------------------------
c   #compile |       time |    #posHit |    #negHit |     #split |    Mem(MB) |     #nodes |     #edges | #equivCall | #Dec. Node | #paritioner |  limit dyn | 
c ----------------------------------------------------------------------------------------------------------------------------------------------------------
c top 5: -81 
c top 5: -81 -15 
c top 5: -81 -15 -16 
c top 5: -81 -15 -16 83 
c unitLits 1048577 4194308 Bytes
c freeVariables 1048577
c top 5: 81 
c top 5: 81 -15 
c top 5: 81 -15 -16 
c top 5: 81 -15 -16 83 
c ----------------------------------------------------------------------------------------------------------------------------------------------------------
c
c [1m[31mStatistics [0m
c [33mCompilation Information[0m
c Number of compiled node: 1083
c Number of split formula: 534
c Number of decision node: 541
c Number of node built on domain constraints: 0
c Number of decomposable AND nodes: 217
c Number of backbone calls: 0
c Number of partitioner calls: 1
c Average number of assigned literal to obtain decomposable AND nodes: 228.37/250
c Minimum number of assigned variable where a decomposable AND appeared: 215
c 
c [33mGraph Information[0m
c Number of nodes: 6587
c Number of edges: 7445
c 
c [1m[34mCache Information[0m
c Memory used: 561 MB
c
c Number of positive hit: 564
c Number of negative hit: 541
c Number of reduceCall: 0
c
c Final time: 2.451124
c 
s 0.000000
D4 LOG: Elapsed time = 3.469 seconds
D4 OUTCOME: normal
mc2022_track1_077. D4 NNF LOG: size ./mc2022_track1_077.cnnf 2378 lines 112566 bytes
mc2022_track1_077. D4 DRAT LOG: size ./mc2022_track1_077.drat 811390 lines 46329763 bytes
DTRIM LOG: Running /Users/bryant/repos/drat-trim/drat-trim ./mc2022_track1_077.cnf ./mc2022_track1_077.drat -f -U
DTRIM LOG: Time limit 1000 seconds

c parsing input formula with 250 variables and 1062 clauses

c finished parsing

c start forward verification

c 1062 of 1062 clauses in core                            

c 364174 of 406648 lemmas in core using 10346427 resolution steps

c 0 RAT lemmas in core; 0 redundant literals in core lemmas

c optimized proofs are not supported for forward checking

c VERIFIED derivation: all lemmas preserve satisfiability

c WARNING: no empty clause detected, this is not a refutation

s DERIVATION

c verification time: 3.362 seconds
DTRIM LOG: Elapsed time = 3.365 seconds
DTRIM OUTCOME: normal
CHECK LOG: Running /Users/bryant/repos/d4/certificator ./mc2022_track1_077.cnf ./mc2022_track1_077.cnnf ./mc2022_track1_077.drat
CHECK LOG: Time limit 1000 seconds
c CNF information
c Number of variables: 250
c Number of clauses: 1062
c
c DRAT information
c Number of drat clauses: 406647
c
c DDnnf parsing: 0.001
c DDnnf checked: 0.004
c
c Global time: 0.164
CHECK LOG: Elapsed time = 0.177 seconds
CHECK OUTCOME: normal
OVERALL LOG: Elapsed time = 7.157 seconds
OVERALL OUTCOME: normal
